
Gurobi 11.0.1 (win64) logging started Thu May 16 18:50:15 2024

Set parameter LogFile to value "output/solver_log19.txt"
Gurobi Optimizer version 11.0.1 build v11.0.1rc0 (win64 - Windows 11.0 (22631.2))

CPU model: 11th Gen Intel(R) Core(TM) i7-1165G7 @ 2.80GHz, instruction set [SSE2|AVX|AVX2|AVX512]
Thread count: 4 physical cores, 8 logical processors, using up to 8 threads

Optimize a model with 5328 rows, 1358 columns and 100411 nonzeros
Model fingerprint: 0x0a054165
Variable types: 568 continuous, 790 integer (790 binary)
Coefficient statistics:
  Matrix range     [4e-01, 1e+05]
  Objective range  [1e+00, 1e+02]
  Bounds range     [1e+00, 1e+00]
  RHS range        [1e-02, 1e+05]

User MIP start produced solution with objective 40294 (0.01s)
User MIP start produced solution with objective 40294 (0.01s)
Loaded user MIP start with objective 40294

Presolve removed 912 rows and 464 columns
Presolve time: 0.11s
Presolved: 4416 rows, 894 columns, 84771 nonzeros
Variable types: 526 continuous, 368 integer (361 binary)

Root relaxation: objective 5.247824e+04, 1356 iterations, 0.07 seconds (0.15 work units)

    Nodes    |    Current Node    |     Objective Bounds      |     Work
 Expl Unexpl |  Obj  Depth IntInf | Incumbent    BestBd   Gap | It/Node Time

     0     0 52478.2383    0   50 40293.9682 52478.2383  30.2%     -    0s
     0     0 51291.2720    0   59 40293.9682 51291.2720  27.3%     -    0s
     0     0 50988.0157    0   62 40293.9682 50988.0157  26.5%     -    0s
     0     0 49791.1972    0   62 40293.9682 49791.1972  23.6%     -    0s
     0     0 49532.0198    0   73 40293.9682 49532.0198  22.9%     -    0s
     0     0 49532.0198    0   88 40293.9682 49532.0198  22.9%     -    1s
     0     0 49532.0198    0   86 40293.9682 49532.0198  22.9%     -    1s
     0     0 49293.5642    0   87 40293.9682 49293.5642  22.3%     -    1s
     0     0 49100.7034    0   81 40293.9682 49100.7034  21.9%     -    1s
     0     0 49100.7034    0   87 40293.9682 49100.7034  21.9%     -    1s
     0     0 49100.7034    0   90 40293.9682 49100.7034  21.9%     -    1s
     0     0 48689.7998    0   68 40293.9682 48689.7998  20.8%     -    2s
     0     0 48517.8240    0   69 40293.9682 48517.8240  20.4%     -    2s
     0     0 48511.3727    0   64 40293.9682 48511.3727  20.4%     -    2s
     0     0 48510.7683    0   73 40293.9682 48510.7683  20.4%     -    2s
     0     0 48510.3338    0   75 40293.9682 48510.3338  20.4%     -    2s
     0     0 48494.6431    0   77 40293.9682 48494.6431  20.4%     -    3s
     0     0 48491.8581    0   81 40293.9682 48491.8581  20.3%     -    3s
     0     0 48482.4567    0   88 40293.9682 48482.4567  20.3%     -    3s
     0     0 48449.8441    0   75 40293.9682 48449.8441  20.2%     -    3s
     0     0 48449.1486    0   75 40293.9682 48449.1486  20.2%     -    3s
     0     0 48449.1018    0   76 40293.9682 48449.1018  20.2%     -    3s
     0     0 48444.5872    0   80 40293.9682 48444.5872  20.2%     -    3s
     0     0 48394.2879    0   70 40293.9682 48394.2879  20.1%     -    4s
     0     0 48394.2879    0   72 40293.9682 48394.2879  20.1%     -    4s
     0     0 48394.2879    0   72 40293.9682 48394.2879  20.1%     -    4s
     0     0 48394.2879    0   80 40293.9682 48394.2879  20.1%     -    4s
     0     0 48394.2879    0   76 40293.9682 48394.2879  20.1%     -    4s
     0     0 48394.2879    0   77 40293.9682 48394.2879  20.1%     -    4s
     0     0 48394.2879    0   85 40293.9682 48394.2879  20.1%     -    4s
     0     0 48317.4244    0   83 40293.9682 48317.4244  19.9%     -    4s
     0     0 48295.9979    0   76 40293.9682 48295.9979  19.9%     -    4s
     0     0 48261.3635    0   77 40293.9682 48261.3635  19.8%     -    5s
     0     0 48261.3635    0   77 40293.9682 48261.3635  19.8%     -    5s
     0     0 48261.3635    0   72 40293.9682 48261.3635  19.8%     -    5s
     0     0 48261.2266    0   71 40293.9682 48261.2266  19.8%     -    5s
     0     0 48261.2266    0   80 40293.9682 48261.2266  19.8%     -    5s
     0     0 48261.2266    0   79 40293.9682 48261.2266  19.8%     -    5s
     0     0 48261.2266    0   81 40293.9682 48261.2266  19.8%     -    5s
     0     0 48218.1987    0   81 40293.9682 48218.1987  19.7%     -    5s
     0     2 48218.1987    0   81 40293.9682 48218.1987  19.7%     -    6s
   101    67 45883.6103    5   55 40293.9682 46255.6205  14.8%   667   10s
H  322   185                    40309.696608 45778.8159  13.6%   705   14s
   323   195 41268.1202    7   32 40309.6966 45778.8159  13.6%   709   15s
H  405   201                    40310.334669 44790.9317  11.1%   673   16s
H  448   208                    40310.384420 44511.7926  10.4%   669   17s
H  606   284                    40310.603474 44345.4162  10.0%   635   19s
   632   287     cutoff    9      40310.6035 44271.4999  9.83%   632   20s
H  656   287                    40320.211914 44271.4999  9.80%   619   20s
  1036   289     cutoff   13      40320.2119 43647.6691  8.25%   502   25s
  1589   280 40539.1344    8   56 40320.2119 43161.9035  7.05%   402   32s
  1704   287 40581.6518    7   44 40320.2119 43099.6032  6.89%   394   38s
  1833   281 42462.8606    7   35 40320.2119 43001.0511  6.65%   384   40s
  3234   333     cutoff   13      40320.2119 42600.8618  5.66%   264   45s
  7469   448 40325.5437   69   81 40320.2119 42275.8310  4.85%   129   53s
  7476   453 40324.8118   70   85 40320.2119 42275.8310  4.85%   129   55s
  7503   474 42275.8310   16   68 40320.2119 42275.8310  4.85%   134   60s

Cutting planes:
  Gomory: 5
  Implied bound: 6
  Projected implied bound: 9
  MIR: 22
  Flow cover: 20
  RLT: 3
  Relax-and-lift: 4
  BQP: 1

Explored 7507 nodes (1028714 simplex iterations) in 60.02 seconds (124.40 work units)
Thread count was 8 (of 8 available processors)

Solution count 6: 40320.2 40310.6 40310.4 ... 40294

Time limit reached
Best objective 4.032021191361e+04, best bound 4.227583096020e+04, gap 4.8502%
